10
0 59 11 25 32 53 79 78 25 70 
62 0 95 27 99 91 17 91 12 18 
34 30 0 20 49 66 49 13 77 5 
6 25 37 0 75 95 93 7 26 32 
48 27 6 66 0 71 49 31 25 40 
2 67 9 29 77 0 3 84 55 65 
51 87 10 99 2 16 0 2 54 35 
35 26 43 47 67 20 66 0 10 15 
66 8 71 36 28 79 99 14 0 54 
87 72 6 51 22 84 82 9 62 0 
